NAME : sim81.86904.tour
COMMENT : Length = 86904
COMMENT : Found by LKH [Keld Helsgaun] Sat Sep 15 01:34:04 2018
TYPE : TOUR
DIMENSION : 81
TOUR_SECTION
1
6
46
29
9
45
16
22
55
63
60
67
81
11
42
18
50
36
47
10
28
73
57
53
21
26
25
59
7
71
15
35
32
49
24
80
38
23
12
30
13
70
41
56
5
27
51
43
8
58
74
19
48
31
34
14
69
17
2
4
39
33
72
37
78
44
65
68
62
66
20
52
61
40
79
64
76
54
3
77
75
-1
EOF
